(set-logic HORN)
(set-info :source |
    Benchmark: C_VC
    Output by Princess (http://www.philipp.ruemmer.org/princess.shtml)
|)
(set-info :status sat)
(declare-fun inv_main20 (Int Int Int Int Int Int) Bool)
(declare-fun inv_main22 (Int Int Int Int Int Int) Bool)
(declare-fun inv_main8 (Int Int Int Int Int Int) Bool)
(assert (forall ((var0 Int) (var1 Int) (var2 Int) (var3 Int) (var4 Int) (var5 Int)) (inv_main8 var5 var4 var3 var2 var1 var0)))
(assert (forall ((var0 Int) (var1 Int) (var2 Int) (var3 Int) (var4 Int) (var5 Int) (var6 Int)) (or (not (and (inv_main8 var6 var5 var4 var3 var2 var1) (and (<= 0 (+ (+ var0 1) (- 1))) (and (<= 0 (+ var0 (- 1))) (<= 0 (+ (+ 2147483647 (* (- 1) var0)) (- 1))))))) (inv_main20 var0 0 (+ (+ var0 1) (- 1)) 0 0 (+ (+ var0 1) (- 1))))))
(assert (forall ((var0 Int) (var1 Int) (var2 Int) (var3 Int) (var4 Int) (var5 Int)) (or (not (and (inv_main22 var5 var4 var3 var2 var1 var0) (<= 0 (+ var0 (* (- 1) (+ var2 1)))))) (inv_main20 var5 var4 var3 (+ var2 1) var1 var0))))
(assert (forall ((var0 Int) (var1 Int) (var2 Int) (var3 Int) (var4 Int) (var5 Int)) (or (not (inv_main20 var5 var4 var3 var2 var1 var0)) (inv_main22 var5 var4 var3 var2 var1 var0))))
(assert (forall ((var0 Int) (var1 Int) (var2 Int) (var3 Int) (var4 Int) (var5 Int)) (not (and (inv_main20 var5 var4 var3 var2 var1 var0) (not (<= 0 var2))))))
(assert (forall ((var0 Int) (var1 Int) (var2 Int) (var3 Int) (var4 Int) (var5 Int)) (not (and (inv_main22 var5 var4 var3 var2 var1 var0) (not (<= 0 (+ (+ (+ var5 1) (* (- 1) var2)) (- 1))))))))
(check-sat)
